c A SAT instance generated from a 3-CNF formula that had 39 clauses and 13 variables
p cnf 13 39
-11 -4 5 0
6 12 9 0
4 -3 12 0
10 -1 3 0
-1 -4 -2 0
2 -6 -10 0
12 13 6 0
8 7 -4 0
-7 1 11 0
-10 12 5 0
-11 2 6 0
10 -1 -13 0
-11 -9 13 0
-2 4 5 0
-11 -7 12 0
5 -8 3 0
-2 -8 -3 0
-11 -9 -4 0
-7 10 -9 0
-2 -5 -8 0
6 11 -8 0
5 -11 -3 0
3 -1 -13 0
-3 -6 -11 0
1 -9 10 0
-3 2 -1 0
-7 2 -13 0
-5 -8 12 0
3 11 -10 0
-10 12 -4 0
-9 -11 -8 0
-3 -2 -7 0
4 7 -11 0
11 13 8 0
-3 4 8 0
13 9 8 0
-12 13 -9 0
-13 -4 -5 0
-11 9 10 0
